100
100
160 22
46 24
196 13
919 18
297 19
204 13
265 17
736 17
252 23
658 4
432 9
774 10
516 2
803 13
958 21
794 17
319 16
292 14
5 10
183 4
404 11
891 20
54 3
861 5
801 20
910 9
253 8
870 20
937 22
632 19
767 2
10 10
320 2
951 24
863 8
977 18
871 20
637 24
197 24
581 24
718 15
932 22
525 2
793 11
473 24
354 17
201 15
28 20
368 3
195 8
111 22
200 8
391 14
256 14
389 11
288 9
326 21
132 2
724 25
662 24
348 17
140 25
433 17
771 3
497 16
735 9
489 11
291 4
826 23
169 15
734 6
673 11
379 6
964 2
80 25
650 3
343 16
679 2
660 25
279 6
415 15
114 5
651 6
133 3
653 3
42 13
461 16
500 14
222 13
940 3
439 17
80 8
82 9
260 16
560 13
248 1
255 11
580 7
468 12
84 21
